10 10 4

0 337 271 312 236 422 150 190 113 62 
339 0 106 398 328 409 409 254 310 219 
420 220 0 70 231 493 165 149 273 259 
131 287 463 0 476 123 440 287 66 361 
144 206 180 156 0 251 443 260 78 352 
375 282 368 93 202 0 294 321 139 286 
192 239 59 157 320 296 0 119 295 125 
265 289 348 125 139 260 462 0 245 462 
405 211 490 463 86 272 330 336 0 180 
330 363 269 116 55 214 125 162 241 0 

99.6 0 5
99.6 1 5
99.6 2 0
99.6 3 4
99.6 4 0
99.6 5 2
99.6 6 1
99.6 7 0
99.6 8 7
99.6 9 4

